width = 23;

n_circuits = 19;

circuit_x = array1d(1..19, [3, 3, 3, 3, 3, 3, 3, 3, 3, 3, 3, 3, 4, 4, 4, 4, 4, 4,
    6]);

circuit_y = array1d(1..19, [3, 4, 5, 6, 7, 8, 9, 10, 11, 12, 14, 20, 3, 4, 6, 10,
    11, 12, 3]);

opt_height = 23;

max_y = 20;

